78-66-46-30-79-64-12-14-26-84-0-52-39-11-45-23-31-60-25-6-81-77-8-36-28-17-48-92-3-59-13-98-9-91-18-65-43-62-15-50-47-83-10-51-86-95-96-80-44-32-99-35-56-73-68-2-72-58-40-88-20-67-29-76-1-34-22-69-75-90-93-94-49-82-71-85-4-42-55-70-37-38-27-87-97-57-33-89-24-16-7-21-74-61-53-5-41-54-63-19 22567
